(declare-const |K:136| Int)
(declare-const tmp___1 Int)
(declare-const |y':123| Int)
(declare-const |phi_tmp___2:21:51| Int)
(declare-const |z':124| Int)
(declare-const |phi_tmp___2:52| Int)
(declare-const |havoc:3:110| Int)
(declare-const |tmp':126| Int)
(declare-const tmp Int)
(declare-const |x':122| Int)
(declare-const |w':125| Int)
(declare-const |tmp___1':127| Int)
(assert (and (or (not (and (<= (- |K:136|) 0) (<= |K:136| 0)))
                   (= (+ |z':124| (* -10 |K:136|)) 0))
               (or (not (<= (+ (- |K:136|) 1) 0))
                     (= (+ |z':124| (* -10 |K:136|)) 0))
               (or (not (and (<= (- |K:136|) 0) (<= |K:136| 0)))
                     (= (+ |w':125| (- |K:136|)) 0))
               (or (not (<= (+ (- |K:136|) 1) 0))
                     (= (+ |w':125| (- |K:136|)) 0))
               (or (not (<= (- |K:136|) 0))
                     (<= (+ (* 19999 |x':122|) (- |y':123|)
                              (* -19998 |K:136|)) 0))
               (or (not (<= (- |K:136|) 0)) (<= (+ |x':122| (- |K:136|)) 0))
               (or (not (<= (- |K:136|) 0)) (<= (- |x':122|) 0))
               (or (not (<= (- |K:136|) 0))
                     (<= (+ (* -100 |x':122|) |y':123|) 0))
               (or (and (= |K:136| 0) (= (+ (- |tmp___1':127|) tmp___1) 0)
                          (= (+ (- |tmp':126|) tmp) 0) (= (- |w':125|) 0)
                          (= (- |z':124|) 0) (= (- |y':123|) 0)
                          (= (- |x':122|) 0))
                     (and (<= (+ (- |K:136|) 1) 0)
                            (= (+ (* 10 |w':125|) (- |z':124|)) 0)
                            (<= (+ |y':123| -10099) 0)
                            (<= (+ (* -100 |x':122|) |y':123| -9999) 0)
                            (<= (- |x':122|) 0) (<= (+ (- |z':124|) 10) 0)))
               (<= (- |K:136|) 0) (<= (- |x':122|) 0) (<= (- |z':124|) 0)
               (<= (- |w':125|) 0) (= (+ (* -10 |w':125|) |z':124|) 0)
               (or (= |havoc:3:110| 0)
                     (and (not (= |havoc:3:110| 0))
                            (<= (+ (- |y':123|) 10000) 0)))
               (or (and (<= (+ (- |x':122|) 4) 0)
                          (or (and (< (+ (- |y':123|) 2) 0)
                                     (= (- |phi_tmp___2:21:51|) 0))
                                (and (<= (+ |y':123| -2) 0)
                                       (= (+ (- |phi_tmp___2:21:51|) 1) 0)))
                          (= (+ (- |phi_tmp___2:52|) |phi_tmp___2:21:51|) 0))
                     (and (< (+ |x':122| -4) 0) (= (- |phi_tmp___2:52|) 0)))
               (= |phi_tmp___2:52| 0)))
(check-sat)
